Running MiniSat on FULL_RUN_MINISAT\11cc532ecddfb10a47e0a869b4867c1b-Break_triple_20_36.xml.cnf... 
============================[ Problem Statistics ]=============================
|                                                                             |
|  Number of variables:         49869                                         |
|  Number of clauses:          264805                                         |
|  Parse time:                   0.42 s                                       |
|                                                                             |
============================[ Search Statistics ]==============================
| Conflicts |          ORIGINAL         |          LEARNT          | Progress |
|           |    Vars  Clauses Literals |    Limit  Clauses Lit/Cl |          |
===============================================================================
|       100 |   49865   264805   609487 |    97095       99     45 |  0.008 % |
|       250 |   49865   264805   609487 |   106804      249     48 |  0.008 % |
|       475 |   49865   264805   609487 |   117485      474     46 |  0.008 % |
|       812 |   49865   264799   609475 |   129233      811     48 |  0.008 % |
|      1318 |   49865   264799   609475 |   142157     1317     66 |  0.008 % |
|      2077 |   49865   264799   609475 |   156372     2076     68 |  0.008 % |
|      3216 |   49865   264799   609475 |   172010     3215     75 |  0.008 % |
|      4924 |   49865   264799   609475 |   189211     4923     68 |  0.008 % |
|      7486 |   49865   264799   609475 |   208132     7485     76 |  0.008 % |
|     11330 |   49865   264799   609475 |   228945    11329     74 |  0.008 % |
|     17096 |   49865   264799   609475 |   251839    17095     83 |  0.008 % |
|     25745 |   49864   264797   609471 |   277023    25712     93 |  0.010 % |
|     38719 |   49856   264780   609436 |   304726    38650     92 |  0.026 % |
|     58180 |   49856   264780   609436 |   335198    58111     98 |  0.026 % |
ERROR: MiniSat process not found for FULL_RUN_MINISAT\1afa2d7a3d817c3149da432eece66da8-worker_550_550_550_0.3.cnf 
Finished MiniSat on FULL_RUN_MINISAT\1afa2d7a3d817c3149da432eece66da8-worker_550_550_550_0.3.cnf